c instance by G2
c solution = 01111100000111111
c Known solution cost is 635 
p cnf 17 30
w 23 11 1 33 5 57 61 57 94 10 72 3 1 38 97 0 72
5 -4 -14 0
-13 17 -14 0
17 8 -7 0
-5 -7 6 0
4 1 -17 0
-17 3 -16 0
13 -15 -2 0
2 1 -9 0
-12 -2 14 0
-5 -8 11 0
7 6 -17 0
16 -9 17 0
-14 -12 15 0
-13 -11 -6 0
-12 -7 -5 0
-4 8 -11 0
-9 -5 1 0
5 -11 13 0
-4 1 15 0
5 14 1 0
-14 -12 -8 0
5 1 -16 0
-7 -8 2 0
-11 16 2 0
-4 16 -3 0
11 -10 -13 0
-14 -1 11 0
-3 -15 2 0
8 12 11 0
-15 -1 14 0
